27
0 1 2 3 1 4 2 3 3 5 1 6 7 4 5 8 7 4 4 6 2 9 8 8 10 10 9 11 1 9 7 3 12 13 8 14 5 7 14 9 13 11 12 15 5 12 16 17 0 17 10 18 19 11 14 14 0 19 20 16 21 2 22 15 20 12 15 9 16 23 18 24 18 11 22 18 20 23 15 6 10 20 6 24 13 16 25 11 24 19 13 21 25 12 22 25 26 17 21 23 
